minizinc/sudoku_problems2/sudoku_p83.dzn
%
% sudoku_p83.dzn
% See http://www.hakank.org/minizinc/sudoku_gcc.mzn
% 
% This problem is problem 83 from
% Gecode's sudoku.cpp
% http://www.gecode.org/gecode-doc-latest/sudoku_8cpp-source.html
% 
x = array2d(1..n, 1..n, [   
% http://janko.at/Raetsel/Sudoku/595.a.htm
% 83
  _,  3,  _, 11,  8,  _,  _, 12,  6,  1,  _,  _,  _,  2,  _,  _,
  _, 14,  _,  2,  _,  _,  _, 15,  _,  _,  4,  _,  1, 10,  6,  7,
  7,  1, 13,  _,  _,  _, 10,  _,  _,  _, 12,  _,  _, 11,  _,  _,
  _,  6,  _,  _,  _,  9,  2, 13,  _, 11,  _,  3,  _,  _,  4,  5,
  _,  _,  _,  8, 10,  _,  _,  _, 12,  _, 15,  4,  _,  _,  _,  3,
  _, 15,  9,  _,  7,  5, 14,  4,  _,  _, 11,  _,  6,  _,  _,  _,
  5,  _,  _,  1,  _,  _,  _,  8,  _,  _,  6,  _,  4, 15,  _,  _,
  4,  _,  _,  _, 12,  _,  _,  _,  _, 14, 10,  _, 11,  _,  2, 16,
  2, 13,  _,  7,  _, 14,  5,  _,  _,  _,  _,  6,  _,  _,  _,  1,
  _,  _, 11, 10,  _, 13,  _,  _,  9,  _,  _,  _, 16,  _,  _,  8,
  _,  _,  _, 14,  _,  1,  _,  _, 16,  2, 13, 15,  _,  5,  9,  _,
  6,  _,  _,  _,  4, 12,  _, 11,  _,  _,  _,  7,  3,  _,  _,  _,
 10,  2,  _,  _, 11,  _, 12,  _,  4,  6, 14,  _,  _,  _,  7,  _,
  _,  _,  1,  _,  _,  2,  _,  _,  _,  9,  _,  _,  _,  8, 10, 13,
 13, 12,  7,  5,  _, 10,  _,  _,  3,  _,  _,  _, 14,  _, 11,  _,
  _,  _,  8,  _,  _,  _, 16, 14, 10,  _,  _, 12,  2,  _,  5,  _
]);

n = 16;


